     Program PWSCF v.7.1 starts on 27Jun2023 at 18:13:45

     Waiting for input...
     Reading input from standard input

     Current dimensions of program PWSCF are:
     Max number of different atomic species (ntypx) = 10
     Max number of k-points (npk) =  40000
     Max angular momentum in pseudopotentials (lmaxx) =  4
     Message from routine cell_base_init:
     DEPRECATED: use true lattice parameter, not A to a.u. conversion factor

     IMPORTANT: XC functional enforced from input :
     Exchange-correlation= PBE
                           (   1   4   3   4   0   0   0)
     Any further DFT definition will be discarded
     Please, verify this is what you really want

     Message from routine setup:
     using ibrav=0 with symmetry is DISCOURAGED, use correct ibrav instead

     R & G space division:  proc/nbgrp/npool/nimage =      42
     Subspace diagonalization in iterative solution of the eigenvalue problem:
     a serial algorithm will be used

     Using Slab Decomposition

     bravais-lattice index     =            0
     lattice parameter (alat)  =       1.8897  a.u.
     unit-cell volume          =    2142.8036 (a.u.)^3
     number of atoms/cell      =            6
     number of atomic types    =            2
     number of electrons       =        52.00
     number of Kohn-Sham states=           36
     kinetic-energy cutoff     =      50.0000  Ry
     charge density cutoff     =     199.9999  Ry
     scf convergence threshold =      7.3E-08
     mixing beta               =       0.7000
     number of iterations used =            8  plain     mixing
     Exchange-correlation= PBE
                           (   1   4   3   4   0   0   0)

     celldm(1)=   1.889726  celldm(2)=   0.000000  celldm(3)=   0.000000
     celldm(4)=   0.000000  celldm(5)=   0.000000  celldm(6)=   0.000000

     crystal axes: (cart. coord. in units of alat)
               a(1) = (   3.112600   0.000000   0.000000 )
               a(2) = (  -1.556300   2.695591   0.000000 )
               a(3) = (   0.000000   0.000000  37.845000 )

     reciprocal axes: (cart. coord. in units 2 pi/alat)
               b(1) = (  0.321275  0.185488 -0.000000 )
               b(2) = (  0.000000  0.370976  0.000000 )
               b(3) = (  0.000000 -0.000000  0.026424 )

     PseudoPot. # 1 for Mo read from file:
     /ccs/home/dpalmer3/qe-7.1/pseudo/Mo.UPF
     MD5 check sum: e75ed155aa411dd1617a1e98b4cfb1d3
     Pseudo is Norm-conserving, Zval = 14.0
     Generated using ONCVPSP code by D. R. Hamann
     Using radial grid of  602 points,  6 beta functions with:
                l(1) =   0
                l(2) =   0
                l(3) =   1
                l(4) =   1
                l(5) =   2
                l(6) =   2

     PseudoPot. # 2 for S  read from file:
     /ccs/home/dpalmer3/qe-7.1/pseudo/S.UPF
     MD5 check sum: bb66adc3f78a1ab6d878b9658eae71a4
     Pseudo is Norm-conserving, Zval =  6.0
     Generated using ONCVPSP code by D. R. Hamann
     Using radial grid of  602 points,  4 beta functions with:
                l(1) =   0
                l(2) =   0
                l(3) =   1
                l(4) =   1

     atomic species   valence    mass     pseudopotential
        Mo1           14.00    95.95000     Mo( 1.00)
        S1             6.00    32.06000     S ( 1.00)

      6 Sym. Ops. (no inversion) found

   Cartesian axes

     site n.     atom                  positions (alat units)
         1           Mo1 tau(   1) = (   0.0000000   0.0000000  11.5850000  )
         2           S1  tau(   2) = (   1.5563000   0.8985302  13.1700000  )
         3           S1  tau(   3) = (   1.5563000   0.8985302  10.0000000  )
         4           Mo1 tau(   4) = (   1.5563000   0.8985302  17.8450000  )
         5           S1  tau(   5) = (  -0.0000000   1.7970604  19.4300000  )
         6           S1  tau(   6) = (  -0.0000000   1.7970604  16.2600000  )

     number of k points=    27
                       cart. coord. in units 2pi/alat
        k(    1) = (   0.0000000   0.0000000   0.0000000), wk =   0.0088889
        k(    2) = (   0.0000000   0.0247317   0.0000000), wk =   0.0533333
        k(    3) = (   0.0000000   0.0494635   0.0000000), wk =   0.0533333
        k(    4) = (   0.0000000   0.0741952   0.0000000), wk =   0.0533333
        k(    5) = (   0.0000000   0.0989270   0.0000000), wk =   0.0533333
        k(    6) = (   0.0000000   0.1236587   0.0000000), wk =   0.0533333
        k(    7) = (   0.0000000   0.1483905   0.0000000), wk =   0.0533333
        k(    8) = (   0.0000000   0.1731222   0.0000000), wk =   0.0533333
        k(    9) = (   0.0214183   0.0370976   0.0000000), wk =   0.0533333
        k(   10) = (   0.0214183   0.0618294   0.0000000), wk =   0.1066667
        k(   11) = (   0.0214183   0.0865611   0.0000000), wk =   0.1066667
        k(   12) = (   0.0214183   0.1112929   0.0000000), wk =   0.1066667
        k(   13) = (   0.0214183   0.1360246   0.0000000), wk =   0.1066667
        k(   14) = (   0.0214183   0.1607564   0.0000000), wk =   0.1066667
        k(   15) = (   0.0214183   0.1854881   0.0000000), wk =   0.0533333
        k(   16) = (   0.0428366   0.0741952   0.0000000), wk =   0.0533333
        k(   17) = (   0.0428366   0.0989270   0.0000000), wk =   0.1066667
        k(   18) = (   0.0428366   0.1236587   0.0000000), wk =   0.1066667
        k(   19) = (   0.0428366   0.1483905   0.0000000), wk =   0.1066667
        k(   20) = (   0.0428366   0.1731222   0.0000000), wk =   0.1066667
        k(   21) = (   0.0642550   0.1112929   0.0000000), wk =   0.0533333
        k(   22) = (   0.0642550   0.1360246   0.0000000), wk =   0.1066667
        k(   23) = (   0.0642550   0.1607564   0.0000000), wk =   0.1066667
        k(   24) = (   0.0642550   0.1854881   0.0000000), wk =   0.0533333
        k(   25) = (   0.0856733   0.1483905   0.0000000), wk =   0.0533333
        k(   26) = (   0.0856733   0.1731222   0.0000000), wk =   0.1066667
        k(   27) = (   0.1070916   0.1854881   0.0000000), wk =   0.0177778

     Atomic positions and unit cell read from directory:
     ./calc.save/

     Cannot read rho : file not found

     Initial potential from superposition of free atoms

     starting charge      51.7773, renormalised to      52.0000

     negative rho (up, down):  5.946E-04 0.000E+00
     Wavefunctions not found or not readable, recomputing them from scratch
     Starting wfcs are random

     Self-consistent Calculation

     iteration #  1     ecut=    50.00 Ry     beta= 0.70
     Davidson diagonalization with overlap
     c_bands:  4 eigenvalues not converged
     c_bands:  2 eigenvalues not converged
     c_bands:  3 eigenvalues not converged
     c_bands:  5 eigenvalues not converged
     c_bands:  3 eigenvalues not converged
     c_bands:  1 eigenvalues not converged
     c_bands:  5 eigenvalues not converged
     c_bands:  4 eigenvalues not converged
     ethr =  1.00E-05,  avg # of iterations = 27.7

     negative rho (up, down):  1.370E-04 0.000E+00

     total energy              =    -356.59159615 Ry
     estimated scf accuracy    <       0.18440875 Ry

     iteration #  2     ecut=    50.00 Ry     beta= 0.70
     Davidson diagonalization with overlap
     ethr =  3.55E-04,  avg # of iterations =  4.0

[...]

     negative rho (up, down):  6.054E-08 0.000E+00

[...]

     total energy              =    -356.64979366 Ry
     estimated scf accuracy    <       0.00000120 Ry

     iteration # 12     ecut=    50.00 Ry     beta= 0.70
     Davidson diagonalization with overlap
     ethr =  2.30E-09,  avg # of iterations =  1.3

     End of self-consistent calculation

          k = 0.0000 0.0000 0.0000 ( 12941 PWs)   bands (ev):

   -61.2327 -61.1899 -35.4340 -35.3908 -35.1340 -35.1340 -35.0916 -35.0916
   -14.7903 -14.6552 -13.5324 -13.3296  -6.4821  -5.9998  -2.9518  -2.9125
    -2.9125  -2.8697  -2.8697  -1.9436  -1.7604  -1.7604  -1.7158  -1.7158
    -0.8472  -0.1721   2.5083   2.5083   2.5663   2.5663   2.6856   2.6856
     2.7486   2.7486   4.9782   5.0178

[...]

          k = 0.1071 0.1855 0.0000 ( 12792 PWs)   bands (ev):

   -61.1748 -61.1320 -35.4838 -35.4413 -35.4305 -35.3880 -35.3208 -35.2777
   -12.3799 -12.3379 -12.3244 -12.2809  -6.0429  -6.0046  -5.2231  -5.1655
    -4.6380  -4.6339  -4.0255  -4.0044  -3.4616  -3.4234  -2.7978  -2.7035
    -0.4205  -0.3719   1.5341   1.5745   2.5161   2.5209   3.2503   3.2910
     4.6683   4.6770   6.7210   7.2569

     highest occupied, lowest unoccupied level (ev):    -0.1721    1.3029

!    total energy              =    -356.64979381 Ry
     estimated scf accuracy    <          9.1E-09 Ry

     The total energy is the sum of the following terms:
     one-electron contribution =   -6675.94021041 Ry
     hartree contribution      =    3338.37039062 Ry
     xc contribution           =     -49.50522853 Ry
     ewald contribution        =    3030.42525451 Ry

     convergence has been achieved in  12 iterations

     Forces acting on atoms (cartesian axes, Ry/au):

     atom    1 type  1   force =     0.00000000    0.00000000   -0.00071573
     atom    2 type  2   force =     0.00000000    0.00000000   -0.00085915
     atom    3 type  2   force =     0.00000000    0.00000000   -0.00367162
     atom    4 type  1   force =     0.00000000    0.00000000    0.00138911
     atom    5 type  2   force =     0.00000000    0.00000000    0.00335841
     atom    6 type  2   force =     0.00000000    0.00000000    0.00049898

     Total force =     0.005309     Total SCF correction =     0.000288

     Writing all to output data dir ./calc.save/

     General routines

     Parallel routines

   This run was terminated on:  18:14:59  27Jun2023

   JOB DONE.