     Program PWSCF v.7.1 starts on 29Jun2023 at 17:20: 7

     Waiting for input...
     Reading input from standard input

     Current dimensions of program PWSCF are:
     Max number of different atomic species (ntypx) = 10
     Max number of k-points (npk) =  40000
     Max angular momentum in pseudopotentials (lmaxx) =  4
     Message from routine cell_base_init:
     DEPRECATED: use true lattice parameter, not A to a.u. conversion factor

     IMPORTANT: XC functional enforced from input :
     Exchange-correlation= PBE
                           (   1   4   3   4   0   0   0)
     Any further DFT definition will be discarded
     Please, verify this is what you really want

     Message from routine setup:
     using ibrav=0 with symmetry is DISCOURAGED, use correct ibrav instead

     R & G space division:  proc/nbgrp/npool/nimage =      42
     Subspace diagonalization in iterative solution of the eigenvalue problem:
     a serial algorithm will be used

     Using Slab Decomposition

     bravais-lattice index     =            0
     lattice parameter (alat)  =       1.8897  a.u.
     unit-cell volume          =    2325.7876 (a.u.)^3
     number of atoms/cell      =            6
     number of atomic types    =            4
     number of electrons       =        86.00
     number of Kohn-Sham states=           53
     kinetic-energy cutoff     =      50.0000  Ry
     charge density cutoff     =     199.9999  Ry
     scf convergence threshold =      7.3E-08
     mixing beta               =       0.7000
     number of iterations used =            8  plain     mixing
     Exchange-correlation= PBE
                           (   1   4   3   4   0   0   0)

     celldm(1)=   1.889726  celldm(2)=   0.000000  celldm(3)=   0.000000
     celldm(4)=   0.000000  celldm(5)=   0.000000  celldm(6)=   0.000000

     crystal axes: (cart. coord. in units of alat)
               a(1) = (   3.224300   0.000000   0.000000 )
               a(2) = (  -1.612150   2.792326   0.000000 )
               a(3) = (   0.000000   0.000000  38.280000 )

     reciprocal axes: (cart. coord. in units 2 pi/alat)
               b(1) = (  0.310145  0.179062 -0.000000 )
               b(2) = (  0.000000  0.358124  0.000000 )
               b(3) = (  0.000000 -0.000000  0.026123 )

     PseudoPot. # 1 for Mo read from file:
     /ccs/home/dpalmer3/qe-7.1/pseudo/Mo.UPF
     MD5 check sum: e75ed155aa411dd1617a1e98b4cfb1d3
     Pseudo is Norm-conserving, Zval = 14.0
     Generated using ONCVPSP code by D. R. Hamann
     Using radial grid of  602 points,  6 beta functions with:
                l(1) =   0
                l(2) =   0
                l(3) =   1
                l(4) =   1
                l(5) =   2
                l(6) =   2

     PseudoPot. # 2 for Se read from file:
     /ccs/home/dpalmer3/qe-7.1/pseudo/Se.UPF
     MD5 check sum: e78e48a4f5d8ce1f8dc76ec1271f249c
     Pseudo is Norm-conserving, Zval =  6.0
     Generated using ONCVPSP code by D. R. Hamann
     Using radial grid of  602 points,  6 beta functions with:
                l(1) =   0
                l(2) =   0
                l(3) =   1
                l(4) =   1
                l(5) =   2
                l(6) =   2

     PseudoPot. # 3 for W  read from file:
     /ccs/home/dpalmer3/qe-7.1/pseudo/W.UPF
     MD5 check sum: b6096f31a98cdd82a46cfdcd1f902baf
     Pseudo is Norm-conserving, Zval = 28.0
     Generated using ONCVPSP code by D. R. Hamann
     Using radial grid of  602 points,  8 beta functions with:
                l(1) =   0
                l(2) =   0
                l(3) =   1
                l(4) =   1
                l(5) =   2
                l(6) =   2
                l(7) =   3
                l(8) =   3

     PseudoPot. # 4 for Te read from file:
     /ccs/home/dpalmer3/qe-7.1/pseudo/Te.UPF
     MD5 check sum: dd4de4dac1e38587f63aaf3700bb29d3
     Pseudo is Norm-conserving, Zval = 16.0
     Generated using ONCVPSP code by D. R. Hamann
     Using radial grid of  602 points,  6 beta functions with:
                l(1) =   0
                l(2) =   0
                l(3) =   1
                l(4) =   1
                l(5) =   2
                l(6) =   2

     atomic species   valence    mass     pseudopotential
        Mo1           14.00    95.95000     Mo( 1.00)
        Se1            6.00    78.97100     Se( 1.00)
        W1            28.00   183.84000     W ( 1.00)
        Te1           16.00   127.60000     Te( 1.00)

      6 Sym. Ops. (no inversion) found

   Cartesian axes

     site n.     atom                  positions (alat units)
         1           Mo1 tau(   1) = (   0.0000000   0.0000000  11.6650000  )
         2           Se1 tau(   2) = (   1.6121500   0.9307752  13.3300000  )
         3           Se1 tau(   3) = (   1.6121500   0.9307752  10.0000000  )
         4           W1  tau(   4) = (   1.6121500   0.9307752  18.2800000  )
         5           Te1 tau(   5) = (  -0.0000000   1.8615505  20.0300000  )
         6           Te1 tau(   6) = (  -0.0000000   1.8615505  16.5300000  )

     number of k points=    27
                       cart. coord. in units 2pi/alat
        k(    1) = (   0.0000000   0.0000000   0.0000000), wk =   0.0088889
        k(    2) = (   0.0000000   0.0238750   0.0000000), wk =   0.0533333
        k(    3) = (   0.0000000   0.0477499   0.0000000), wk =   0.0533333
        k(    4) = (   0.0000000   0.0716249   0.0000000), wk =   0.0533333
        k(    5) = (   0.0000000   0.0954998   0.0000000), wk =   0.0533333
        k(    6) = (   0.0000000   0.1193748   0.0000000), wk =   0.0533333
        k(    7) = (   0.0000000   0.1432498   0.0000000), wk =   0.0533333
        k(    8) = (   0.0000000   0.1671247   0.0000000), wk =   0.0533333
        k(    9) = (   0.0206763   0.0358124   0.0000000), wk =   0.0533333
        k(   10) = (   0.0206763   0.0596874   0.0000000), wk =   0.1066667
        k(   11) = (   0.0206763   0.0835624   0.0000000), wk =   0.1066667
        k(   12) = (   0.0206763   0.1074373   0.0000000), wk =   0.1066667
        k(   13) = (   0.0206763   0.1313123   0.0000000), wk =   0.1066667
        k(   14) = (   0.0206763   0.1551872   0.0000000), wk =   0.1066667
        k(   15) = (   0.0206763   0.1790622   0.0000000), wk =   0.0533333
        k(   16) = (   0.0413526   0.0716249   0.0000000), wk =   0.0533333
        k(   17) = (   0.0413526   0.0954998   0.0000000), wk =   0.1066667
        k(   18) = (   0.0413526   0.1193748   0.0000000), wk =   0.1066667
        k(   19) = (   0.0413526   0.1432498   0.0000000), wk =   0.1066667
        k(   20) = (   0.0413526   0.1671247   0.0000000), wk =   0.1066667
        k(   21) = (   0.0620290   0.1074373   0.0000000), wk =   0.0533333
        k(   22) = (   0.0620290   0.1313123   0.0000000), wk =   0.1066667
        k(   23) = (   0.0620290   0.1551872   0.0000000), wk =   0.1066667
        k(   24) = (   0.0620290   0.1790622   0.0000000), wk =   0.0533333
        k(   25) = (   0.0827053   0.1432498   0.0000000), wk =   0.0533333
        k(   26) = (   0.0827053   0.1671247   0.0000000), wk =   0.1066667
        k(   27) = (   0.1033816   0.1790622   0.0000000), wk =   0.0177778

     Atomic positions and unit cell read from directory:
     ./calc.save/

     The initial density is read from file :
     ./calc.save/charge-density

     Starting wfcs from file

     Self-consistent Calculation

     iteration #  1     ecut=    50.00 Ry     beta= 0.70
     Davidson diagonalization with overlap
     c_bands:  2 eigenvalues not converged
     c_bands:  1 eigenvalues not converged
     c_bands:  2 eigenvalues not converged
     c_bands:  1 eigenvalues not converged
     c_bands:  1 eigenvalues not converged
     c_bands:  2 eigenvalues not converged
     c_bands:  1 eigenvalues not converged
     c_bands:  2 eigenvalues not converged
     c_bands:  2 eigenvalues not converged
     c_bands:  1 eigenvalues not converged
     c_bands:  1 eigenvalues not converged
     c_bands:  1 eigenvalues not converged
     ethr =  1.00E-05,  avg # of iterations = 18.4

     Threshold (ethr) on eigenvalues was too large:
     Diagonalizing with lowered threshold

     Davidson diagonalization with overlap
     ethr =  5.51E-09,  avg # of iterations =  5.0

     total energy              =   -1068.52707950 Ry
     estimated scf accuracy    <       0.00000357 Ry

     iteration #  2     ecut=    50.00 Ry     beta= 0.70
     Davidson diagonalization with overlap
     ethr =  4.15E-09,  avg # of iterations =  4.1

[...]

     total energy              =   -1068.52708215 Ry
     estimated scf accuracy    <       0.00000231 Ry

     iteration #  4     ecut=    50.00 Ry     beta= 0.70
     Davidson diagonalization with overlap
     ethr =  2.69E-09,  avg # of iterations =  2.0

     End of self-consistent calculation

          k = 0.0000 0.0000 0.0000 ( 13759 PWs)   bands (ev):

   -71.0493 -58.5868 -35.5512 -35.3406 -35.3406 -34.4134 -34.4134 -34.3754
   -34.3754 -34.3314 -34.3247 -34.3247 -34.3144 -34.2450 -34.2450 -32.8034
   -32.5498 -32.5498 -25.2793 -25.2793 -25.2788 -25.2788 -25.2788 -25.2239
   -25.2022 -12.4464 -12.1680 -11.3751 -10.6025  -4.4666  -3.5016  -0.7465
     0.0147   0.0147   0.4987   0.5321   0.5321   1.0794   1.0794   1.2677
     1.8289   1.8289   2.2320   5.2505   5.2505   5.5044   5.5044   6.6116
     6.9089   6.9636   6.9636   7.3533   7.4589

[...]

          k = 0.1034 0.1791 0.0000 ( 13935 PWs)   bands (ev):

   -71.0331 -58.5505 -35.6661 -35.5567 -35.4940 -34.3858 -34.3821 -34.3734
   -34.3522 -34.3404 -34.3368 -34.2792 -34.2569 -34.2076 -34.1599 -32.7976
   -32.7588 -32.7225 -25.2845 -25.2832 -25.2797 -25.2766 -25.2739 -25.2152
   -25.2129 -10.1143 -10.0494  -8.2006  -8.1847  -3.5956  -3.5801  -3.2340
    -2.7255  -2.5628  -2.1173  -1.6908  -1.2115  -1.0120  -0.8677  -0.1383
     0.3513   2.1667   2.3321   3.8563   4.3411   4.4442   4.6599   5.3584
     6.3969   6.6747   7.5316   8.1052   8.5447

     highest occupied, lowest unoccupied level (ev):     2.5972    3.5892

!    total energy              =   -1068.52708232 Ry
     estimated scf accuracy    <       0.00000006 Ry

     The total energy is the sum of the following terms:
     one-electron contribution =  -18176.57741619 Ry
     hartree contribution      =    9089.88148855 Ry
     xc contribution           =    -104.46480804 Ry
     ewald contribution        =    8122.63365336 Ry

     convergence has been achieved in   4 iterations

     Forces acting on atoms (cartesian axes, Ry/au):

     atom    1 type  1   force =     0.00000000    0.00000000   -0.00137067
     atom    2 type  2   force =     0.00000000    0.00000000    0.01896926
     atom    3 type  2   force =     0.00000000    0.00000000   -0.02654016
     atom    4 type  3   force =     0.00000000    0.00000000    0.00264696
     atom    5 type  4   force =     0.00000000    0.00000000    0.16054662
     atom    6 type  4   force =     0.00000000    0.00000000   -0.15425203

     Total force =     0.225038     Total SCF correction =     0.002464

     Writing all to output data dir ./calc.save/

     General routines

     Parallel routines

   This run was terminated on:  17:21:19  29Jun2023

   JOB DONE.