     Program PWSCF v.7.1 starts on 28Jun2023 at 11:38:33

     Waiting for input...
     Reading input from standard input

     Current dimensions of program PWSCF are:
     Max number of different atomic species (ntypx) = 10
     Max number of k-points (npk) =  40000
     Max angular momentum in pseudopotentials (lmaxx) =  4
     Message from routine cell_base_init:
     DEPRECATED: use true lattice parameter, not A to a.u. conversion factor

     IMPORTANT: XC functional enforced from input :
     Exchange-correlation= PBE
                           (   1   4   3   4   0   0   0)
     Any further DFT definition will be discarded
     Please, verify this is what you really want

     Message from routine setup:
     using ibrav=0 with symmetry is DISCOURAGED, use correct ibrav instead

     R & G space division:  proc/nbgrp/npool/nimage =      42
     Subspace diagonalization in iterative solution of the eigenvalue problem:
     a serial algorithm will be used

     Using Slab Decomposition

     bravais-lattice index     =            0
     lattice parameter (alat)  =       1.8897  a.u.
     unit-cell volume          =    2235.1947 (a.u.)^3
     number of atoms/cell      =            6
     number of atomic types    =            3
     number of electrons       =        52.00
     number of Kohn-Sham states=           36
     kinetic-energy cutoff     =      50.0000  Ry
     charge density cutoff     =     199.9999  Ry
     scf convergence threshold =      7.3E-08
     mixing beta               =       0.7000
     number of iterations used =            8  plain     mixing
     Exchange-correlation= PBE
                           (   1   4   3   4   0   0   0)

     celldm(1)=   1.889726  celldm(2)=   0.000000  celldm(3)=   0.000000
     celldm(4)=   0.000000  celldm(5)=   0.000000  celldm(6)=   0.000000

     crystal axes: (cart. coord. in units of alat)
               a(1) = (   3.175640   0.000000   0.000000 )
               a(2) = (  -1.587820   2.750185   0.000000 )
               a(3) = (   0.000000   0.000000  37.925000 )

     reciprocal axes: (cart. coord. in units 2 pi/alat)
               b(1) = (  0.314897  0.181806 -0.000000 )
               b(2) = (  0.000000  0.363612  0.000000 )
               b(3) = (  0.000000 -0.000000  0.026368 )

     PseudoPot. # 1 for Mo read from file:
     /ccs/home/dpalmer3/qe-7.1/pseudo/Mo.UPF
     MD5 check sum: e75ed155aa411dd1617a1e98b4cfb1d3
     Pseudo is Norm-conserving, Zval = 14.0
     Generated using ONCVPSP code by D. R. Hamann
     Using radial grid of  602 points,  6 beta functions with:
                l(1) =   0
                l(2) =   0
                l(3) =   1
                l(4) =   1
                l(5) =   2
                l(6) =   2

     PseudoPot. # 2 for S  read from file:
     /ccs/home/dpalmer3/qe-7.1/pseudo/S.UPF
     MD5 check sum: bb66adc3f78a1ab6d878b9658eae71a4
     Pseudo is Norm-conserving, Zval =  6.0
     Generated using ONCVPSP code by D. R. Hamann
     Using radial grid of  602 points,  4 beta functions with:
                l(1) =   0
                l(2) =   0
                l(3) =   1
                l(4) =   1

     PseudoPot. # 3 for Se read from file:
     /ccs/home/dpalmer3/qe-7.1/pseudo/Se.UPF
     MD5 check sum: e78e48a4f5d8ce1f8dc76ec1271f249c
     Pseudo is Norm-conserving, Zval =  6.0
     Generated using ONCVPSP code by D. R. Hamann
     Using radial grid of  602 points,  6 beta functions with:
                l(1) =   0
                l(2) =   0
                l(3) =   1
                l(4) =   1
                l(5) =   2
                l(6) =   2

     atomic species   valence    mass     pseudopotential
        Mo1           14.00    95.95000     Mo( 1.00)
        S1             6.00    32.06000     S ( 1.00)
        Se1            6.00    78.97100     Se( 1.00)

      6 Sym. Ops. (no inversion) found

   Cartesian axes

     site n.     atom                  positions (alat units)
         1           Mo1 tau(   1) = (   0.0000000   0.0000000  11.5850000  )
         2           S1  tau(   2) = (   1.5878200   0.9167283  13.1700000  )
         3           S1  tau(   3) = (   1.5878200   0.9167283  10.0000000  )
         4           Mo1 tau(   4) = (   1.5878200   0.9167283  17.9250000  )
         5           Se1 tau(   5) = (  -0.0000000   1.8334566  19.5900000  )
         6           Se1 tau(   6) = (  -0.0000000   1.8334566  16.2600000  )

     number of k points=    27
                       cart. coord. in units 2pi/alat
        k(    1) = (   0.0000000   0.0000000   0.0000000), wk =   0.0088889
        k(    2) = (   0.0000000   0.0242408   0.0000000), wk =   0.0533333
        k(    3) = (   0.0000000   0.0484816   0.0000000), wk =   0.0533333
        k(    4) = (   0.0000000   0.0727224   0.0000000), wk =   0.0533333
        k(    5) = (   0.0000000   0.0969632   0.0000000), wk =   0.0533333
        k(    6) = (   0.0000000   0.1212040   0.0000000), wk =   0.0533333
        k(    7) = (   0.0000000   0.1454448   0.0000000), wk =   0.0533333
        k(    8) = (   0.0000000   0.1696856   0.0000000), wk =   0.0533333
        k(    9) = (   0.0209931   0.0363612   0.0000000), wk =   0.0533333
        k(   10) = (   0.0209931   0.0606020   0.0000000), wk =   0.1066667
        k(   11) = (   0.0209931   0.0848428   0.0000000), wk =   0.1066667
        k(   12) = (   0.0209931   0.1090836   0.0000000), wk =   0.1066667
        k(   13) = (   0.0209931   0.1333244   0.0000000), wk =   0.1066667
        k(   14) = (   0.0209931   0.1575652   0.0000000), wk =   0.1066667
        k(   15) = (   0.0209931   0.1818060   0.0000000), wk =   0.0533333
        k(   16) = (   0.0419863   0.0727224   0.0000000), wk =   0.0533333
        k(   17) = (   0.0419863   0.0969632   0.0000000), wk =   0.1066667
        k(   18) = (   0.0419863   0.1212040   0.0000000), wk =   0.1066667
        k(   19) = (   0.0419863   0.1454448   0.0000000), wk =   0.1066667
        k(   20) = (   0.0419863   0.1696856   0.0000000), wk =   0.1066667
        k(   21) = (   0.0629794   0.1090836   0.0000000), wk =   0.0533333
        k(   22) = (   0.0629794   0.1333244   0.0000000), wk =   0.1066667
        k(   23) = (   0.0629794   0.1575652   0.0000000), wk =   0.1066667
        k(   24) = (   0.0629794   0.1818060   0.0000000), wk =   0.0533333
        k(   25) = (   0.0839726   0.1454448   0.0000000), wk =   0.0533333
        k(   26) = (   0.0839726   0.1696856   0.0000000), wk =   0.1066667
        k(   27) = (   0.1049657   0.1818060   0.0000000), wk =   0.0177778

     Atomic positions and unit cell read from directory:
     ./calc.save/

     Cannot read rho : file not found

     Initial potential from superposition of free atoms

     starting charge      51.7621, renormalised to      52.0000

     negative rho (up, down):  6.657E-04 0.000E+00
     Wavefunctions not found or not readable, recomputing them from scratch
     Starting wfcs are random

     Self-consistent Calculation

     iteration #  1     ecut=    50.00 Ry     beta= 0.70
     Davidson diagonalization with overlap
     c_bands:  5 eigenvalues not converged
     c_bands:  4 eigenvalues not converged
     c_bands:  3 eigenvalues not converged
     c_bands:  3 eigenvalues not converged
     c_bands:  3 eigenvalues not converged
     c_bands:  3 eigenvalues not converged
     c_bands:  2 eigenvalues not converged
     c_bands:  5 eigenvalues not converged
     c_bands:  4 eigenvalues not converged
     c_bands:  4 eigenvalues not converged
     c_bands:  4 eigenvalues not converged
     c_bands:  2 eigenvalues not converged
     c_bands:  3 eigenvalues not converged
     c_bands:  3 eigenvalues not converged
     c_bands:  5 eigenvalues not converged
     c_bands:  5 eigenvalues not converged
     c_bands:  4 eigenvalues not converged
     c_bands:  4 eigenvalues not converged
     c_bands:  1 eigenvalues not converged
     c_bands:  5 eigenvalues not converged
     c_bands:  5 eigenvalues not converged
     c_bands:  4 eigenvalues not converged
     ethr =  1.00E-05,  avg # of iterations = 22.1

     negative rho (up, down):  1.499E-04 0.000E+00

     total energy              =    -353.31592752 Ry
     estimated scf accuracy    <       0.25252395 Ry

     iteration #  2     ecut=    50.00 Ry     beta= 0.70
     Davidson diagonalization with overlap
     ethr =  4.86E-04,  avg # of iterations =  8.1

[...]

     negative rho (up, down):  2.104E-08 0.000E+00

     total energy              =    -353.43395989 Ry
     estimated scf accuracy    <       0.00000295 Ry

     iteration # 16     ecut=    50.00 Ry     beta= 0.70
     Davidson diagonalization with overlap
     ethr =  2.53E-09,  avg # of iterations =  2.0

     End of self-consistent calculation

          k = 0.0000 0.0000 0.0000 ( 13361 PWs)   bands (ev):

   -61.2483 -60.5516 -35.3956 -35.1735 -35.1735 -34.8131 -34.4983 -34.4983
   -14.6460 -14.4249 -13.5543 -13.1703  -6.1760  -5.5812  -2.8606  -2.8606
    -2.7171  -1.9863  -1.9863  -1.7729  -1.7729  -1.6018  -0.8714  -0.8714
    -0.6461   0.0757   2.3959   2.3959   2.5701   2.5701   3.4217   3.4217
     3.6801   3.6801   4.8934   5.0372

[...]

          k = 0.1050 0.1818 0.0000 ( 13335 PWs)   bands (ev):

   -61.2041 -60.5069 -35.4577 -35.4135 -35.3058 -34.7887 -34.7441 -34.7166
   -12.2886 -12.2322 -12.1323 -12.0814  -5.7370  -5.4277  -4.9523  -4.8459
    -4.4438  -4.2208  -3.9550  -3.3692  -3.2806  -3.1566  -2.5458  -2.2401
    -0.3632   0.1311   1.3774   1.9990   2.5684   2.6146   3.0745   3.6402
     4.3497   5.1460   6.6554   7.1207

     highest occupied, lowest unoccupied level (ev):     0.1311    1.3774

!    total energy              =    -353.43396025 Ry
     estimated scf accuracy    <       0.00000004 Ry

     The total energy is the sum of the following terms:
     one-electron contribution =   -6365.08070297 Ry
     hartree contribution      =    3183.08484750 Ry
     xc contribution           =     -48.82750922 Ry
     ewald contribution        =    2877.38940443 Ry

     convergence has been achieved in  16 iterations

     Forces acting on atoms (cartesian axes, Ry/au):

     atom    1 type  1   force =     0.00000000   -0.00000000   -0.00117970
     atom    2 type  2   force =     0.00000000    0.00000000   -0.01614277
     atom    3 type  2   force =     0.00000000   -0.00000000    0.01169752
     atom    4 type  1   force =     0.00000000    0.00000000    0.00117871
     atom    5 type  3   force =     0.00000000    0.00000000    0.03970432
     atom    6 type  3   force =     0.00000000    0.00000000   -0.03525807

     Total force =     0.056743     Total SCF correction =     0.000699

     Writing all to output data dir ./calc.save/

     General routines

     Parallel routines

   This run was terminated on:  11:40: 8  28Jun2023

   JOB DONE.